p cnf 7230 16
-7075 -7201 -7211 0
-6685 -7193 -7209 0
-7065 -7189 -7207 0
7075 -7212 0
6685 -7210 0
7065 -7208 0
7211 7212 0
7209 7210 0
7207 7208 0
7205 7206 0
7191 -7206 0
-7191 -7205 0
7201 -7212 0
7193 -7210 0
7189 -7208 0
7077 -7214 0
